[1, 2, 3, 4, 5, 6, 7, 8, 9, 10, 12, 17, 15, 18, 16, 14, 13, 11, 11, 24, 16, 17, 21, 23, 22, 20, 27, 28, 29, 30, 31, 32, 33, 34, 35, 36, 37, 38, 39, 40, 41, 42, 43, 45, 44, 46, 47, 48, 49, 50, 51, 52, 53, 54, 55, 56, 57, 58, 59, 60, 61, 62, 63, 64, 65, 66, 67, 68, 69, 70, 72, 72, 75, 74, 73, 76, 79, 78, 77, 72, 84, 81, 82, 83, 85, 86, 87, 88, 89, 90, 91, 92, 93, 94, 95, 96, 97, 98, 99, 100, 101, 102, 104, 107, 106, 103, 111, 108, 109, 112, 105, 110, 113, 115, 114, 117, 116, 110, 105, 104, 114, 121, 121, 129, 127, 123, 128, 128, 129, 129, 128, 134, 135, 144, 140, 134, 133, 136, 145, 146, 139, 138, 143, 142, 147, 146, 145, 148, 149, 150, 151, 152, 153, 154, 155, 156, 157, 158, 159, 160, 161, 162, 163, 164, 165, 166, 167, 168, 169, 170, 171, 172, 173, 174, 175, 176, 177, 178, 179, 180, 181, 182, 183, 184, 189, 186, 187, 188, 189, 193, 190, 191, 192, 194, 195, 196, 197, 198, 199, 200, 201, 202, 203, 205, 209, 208, 211, 206, 210, 207, 205, 210, 214, 218, 217, 216, 215, 213, 220, 221, 222, 219, 223, 224, 225, 229, 230, 228, 227, 226, 232, 227, 234, 238, 236, 226, 229, 231, 239, 240, 241, 242, 243, 244, 245, 247, 246, 249, 250, 248, 251, 245, 248, 250, 255, 256, 257, 258, 259, 260, 261, 262, 263, 264, 271, 266, 267, 268, 269, 270, 271, 272, 273, 274, 275, 276, 277, 219, 279, 280]
[1, 3, 4, 5, 6, 7, 10, 10, 11, 12, 14, 15, 15, 16, 16, 17, 19, 20, 21, 22, 23, 26, 30, 31, 32, 33, 34, 35, 36, 37, 39, 40, 41, 42, 43, 44, 45, 46, 47, 48, 49, 50, 51, 52, 53, 54, 56, 57, 58, 59, 60, 61, 62, 63, 64, 65, 66, 67, 68, 71, 71, 71, 73, 75, 76, 77, 78, 80, 81, 82, 83, 84, 85, 86, 87, 88, 89, 90, 91, 93, 94, 96, 97, 98, 100, 101, 102, 104, 104, 105, 106, 107, 108, 109, 109, 110, 111, 112, 113, 113, 115, 116, 120, 120, 122, 126, 127, 127, 127, 128, 128, 128, 132, 133, 133, 134, 135, 137, 138, 141, 142, 143, 144, 144, 145, 145, 147, 148, 149, 150, 151, 152, 153, 154, 155, 156, 157, 159, 160, 161, 162, 163, 164, 165, 166, 167, 168, 169, 170, 171, 172, 173, 174, 175, 176, 177, 178, 179, 180, 181, 182, 183, 185, 186, 187, 188, 188, 189, 191, 192, 194, 195, 197, 198, 200, 201, 205, 206, 207, 208, 209, 209, 210, 212, 213, 214, 215, 216, 217, 218, 218, 219, 220, 221, 222, 223, 224, 225, 225, 226, 226, 227, 228, 228, 229, 230, 231, 233, 235, 237, 239, 240, 241, 242, 243, 244, 244, 245, 246, 247, 247, 248, 249, 249, 250, 254, 255, 256, 257, 258, 259, 260, 261, 262, 263, 265, 266, 267, 268, 269, 270, 270, 271, 272, 273, 274, 275, 276, 278, 280, 281, 282, 283, 284, 285, 286, 288, 289, 289, 290, 291, 292, 293, 294, 294, 295, 295, 296, 298, 299, 300, 301, 302, 305, 306, 307, 308, 309, 310, 311, 312, 313, 314, 316, 317, 319, 321, 322, 323, 325, 326, 329, 330, 331, 332, 333, 334, 336, 337, 338, 340, 341, 342, 343, 344, 345, 346, 347, 348, 350, 350, 350, 351, 352, 353, 355, 356, 357, 359, 360, 361, 362, 364, 365, 366, 367, 368, 369, 371, 372, 373, 374, 376, 377, 380, 381, 382, 382, 383, 383, 385, 386, 387, 388, 388, 389, 390, 391, 392, 392, 393, 394, 395, 399, 399, 401, 405, 406, 406, 406, 407, 407, 407, 411, 412, 412, 413, 414, 416, 417, 418, 420, 421, 423, 423, 424, 424, 425, 426, 428, 429, 430, 431, 432, 433, 434, 435, 438, 439, 440, 442, 443, 444, 445, 446, 447, 448, 449, 451, 452, 453, 454, 455, 456, 457, 459, 460, 461, 462, 464, 465, 466, 467, 467, 468, 469, 470, 471, 472, 473, 474, 475, 476, 477, 479, 480, 481, 483, 483, 484, 485, 486, 487, 488, 488, 489, 491, 492, 493, 494, 495, 496, 497, 497, 498, 499, 500, 501, 502, 503, 504, 504, 505, 505, 506, 507, 507, 508, 509, 510, 512, 514, 516, 517, 519, 520, 521, 522, 523, 523, 524, 525, 526, 526, 527, 528, 528, 533, 534, 535, 536, 537, 538, 539, 540, 541, 542, 544, 545, 546, 547, 548, 549, 549, 550, 552, 554, 555, 557, 558, 559, 560, 561, 562, 563, 564, 565, 566, 567, 568, 568, 571, 573, 573, 574, 574, 575, 577, 578, 581, 584, 585, 586, 589, 590, 591, 592, 593, 594, 595, 596, 597, 598, 599, 600, 601, 602, 603, 604, 605, 607, 608, 609, 610, 611, 612, 613, 614, 615, 617, 618, 619, 620, 621, 624, 625, 626, 627, 629, 629, 629, 630, 632, 633, 634, 635, 636, 638, 640, 641, 642, 643, 644, 645, 646, 647, 648, 649, 650, 651, 652, 654, 655, 656, 657, 658, 659, 660, 661, 661, 662, 662, 663, 664, 665, 666, 667, 667, 668, 669, 670, 671, 671, 672, 673, 674, 680, 684, 685, 685, 685, 686, 686, 686, 690, 691, 691, 692, 693, 695, 696, 699, 700, 701, 702, 702, 703, 703, 704, 705, 706, 707, 708, 709, 710, 711, 712, 713, 714, 715, 716, 717, 718, 719, 720, 721, 722, 723, 724, 725, 726, 728, 729, 730, 731, 732, 733, 734, 736, 737, 738, 739, 740, 741, 743, 744, 745, 746, 746, 747, 748, 749, 750, 751, 752, 753, 754, 755, 756, 757, 758, 759, 760, 762, 762, 763, 764, 765, 766, 767, 767, 768, 771, 773, 774, 775, 776, 776, 777, 778, 780, 781, 782, 783, 783, 784, 784, 785, 786, 786, 787, 788, 791, 793, 795, 796, 797, 798, 799, 800, 801, 802, 802, 803, 804, 805, 805, 806, 807, 807, 808, 812, 813, 814, 815, 816, 817, 818, 819, 821, 823, 824, 825, 826, 827, 828, 828, 829, 830, 831, 832, 833, 834, 836, 837, 838, 839, 840, 841, 843, 844, 845, 846, 847, 847, 848, 849, 850, 851, 852, 852, 853, 853, 854, 856, 857, 858, 859, 860, 863, 864, 865, 866, 867, 869, 870, 871, 872, 873, 874, 875, 877, 878, 879, 880, 881, 882, 883, 885, 888, 889, 890, 891, 892, 893, 894, 895, 896, 897, 898, 899, 900, 901, 902, 903, 904, 905, 906, 909, 910, 911, 912, 913, 914, 915, 917, 918, 919, 920, 921, 922, 923, 924, 925, 926, 927, 928, 929, 930, 931, 932, 933, 934, 935, 936, 937, 939, 940, 940, 941, 941, 942, 943, 944, 945, 946, 946, 947, 948, 949, 950, 950, 951, 952, 953, 957, 957, 959, 963, 964, 964, 964, 965, 965, 965, 969, 970, 970, 971, 972, 974, 975, 978, 979, 980, 981, 981, 982, 982, 983, 984, 985, 986, 987, 988, 989, 990, 991, 992, 993, 994, 995, 996, 997, 998, 1000, 1001, 1002, 1003, 1005, 1006, 1007, 1008, 1009, 1010, 1012, 1013, 1014, 1015, 1016, 1017, 1019, 1020, 1023, 1024, 1025, 1025, 1026, 1027, 1028, 1029, 1030, 1031, 1032, 1033, 1034, 1035, 1036, 1037, 1038, 1039, 1041, 1041, 1042, 1043, 1046, 1046, 1047, 1049, 1050, 1051, 1052, 1054, 1055, 1055, 1056, 1057, 1058, 1059, 1060, 1061, 1062, 1062, 1063, 1063, 1064, 1065, 1065, 1066, 1067, 1068, 1070, 1072, 1075, 1076, 1077, 1079, 1080, 1081, 1081, 1082, 1083, 1084, 1084, 1085, 1086, 1086, 1087, 1091, 1092, 1094, 1095, 1096, 1097, 1098, 1099, 1100, 1102, 1103, 1104, 1105, 1106, 1107, 1107, 1108, 1109, 1110, 1111, 1112, 1113, 1115, 1116, 1117, 1119, 1120, 1121, 1122, 1123, 1124, 1125, 1126, 1126, 1127, 1128, 1129, 1130, 1132, 1132, 1133, 1136, 1138, 1139, 1142, 1144, 1145, 1146, 1147, 1148, 1149, 1150, 1151, 1152, 1153, 1154, 1155, 1156, 1157, 1158, 1159, 1160, 1161, 1162, 1163, 1164, 1165, 1166, 1167, 1168, 1169, 1170, 1171, 1172, 1173, 1174, 1175, 1176, 1177, 1178, 1180, 1181, 1183, 1184, 1185, 1187, 1187, 1187, 1188, 1190, 1191, 1192, 1193, 1194, 1196, 1197, 1199, 1200, 1201, 1203, 1204, 1205, 1206, 1207, 1208, 1209, 1210, 1211, 1212, 1213, 1214, 1215, 1216, 1217, 1218, 1221, 1222, 1223, 1224, 1225, 1225, 1226, 1227, 1228, 1229, 1229, 1230, 1231, 1232, 1236, 1236, 1238, 1242, 1244, 1244, 1244, 1249, 1249, 1250, 1251, 1253, 1254, 1255, 1257, 1258, 1259, 1260, 1260, 1262, 1263, 1264, 1265, 1266, 1267, 1268, 1269, 1270, 1271, 1272, 1273, 1275, 1276, 1277, 1278, 1279, 1281, 1282, 1283, 1284, 1285, 1286, 1287, 1288, 1289, 1290, 1291, 1292, 1293, 1294, 1295, 1296, 1297, 1299, 1301, 1302, 1303, 1304, 1304, 1305, 1306, 1307, 1308, 1309, 1310, 1311, 1312, 1313, 1314, 1315, 1316, 1317, 1318, 1320, 1320, 1322, 1323, 1324, 1325, 1325, 1326, 1328, 1329, 1330, 1331, 1332, 1333, 1334, 1334, 1335, 1336, 1337, 1339, 1340, 1341, 1341, 1342, 1342, 1343, 1344, 1344, 1345, 1346, 1347, 1349, 1351, 1353, 1354, 1355, 1356, 1357, 1358, 1359, 1360, 1360, 1361, 1362, 1363, 1363, 1364, 1365, 1365, 1366, 1370, 1371, 1372, 1373, 1374, 1375, 1376, 1377, 1378, 1379, 1381, 1382, 1383, 1384, 1385, 1386, 1386, 1387, 1388, 1389, 1390, 1391, 1392, 1394, 1395, 1396, 1397, 1398, 1399, 1400, 1401, 1402, 1403, 1404, 1405, 1405, 1406, 1407, 1408, 1409, 1410, 1410, 1411, 1411, 1412, 1414, 1415, 1416, 1417, 1421, 1422, 1423, 1424, 1425, 1426, 1427, 1428, 1429, 1430, 1432, 1433, 1436, 1437, 1438, 1441, 1442, 1443, 1444, 1445, 1446, 1447, 1448, 1449, 1450, 1451, 1452, 1453, 1454, 1456, 1457, 1458, 1459, 1460, 1461, 1462, 1463, 1464, 1466, 1466, 1466, 1467, 1468, 1469, 1470, 1471, 1472, 1473, 1475, 1476, 1477, 1478, 1480, 1481, 1482, 1483, 1484, 1485, 1488, 1489, 1490, 1492, 1493, 1494, 1495, 1496, 1497, 1498, 1498, 1500, 1501, 1502, 1503, 1504, 1504, 1505, 1506, 1507, 1508, 1508, 1510, 1511, 1515, 1515, 1517, 1521, 1522, 1522, 1522, 1523, 1523, 1523, 1527, 1528, 1528, 1532, 1534, 1536, 1538, 1539, 1539, 1540, 1540, 1541, 1542, 1543, 1544, 1545, 1546, 1547, 1548, 1549, 1550, 1551, 1552, 1553, 1555, 1556, 1557, 1558, 1559, 1560, 1561, 1562, 1564, 1565, 1566, 1567, 1568, 1569, 1570, 1571, 1573, 1574, 1575, 1576, 1577, 1578, 1580, 1581, 1582, 1583, 1583, 1584, 1585, 1586, 1587, 1588, 1589, 1590, 1591, 1592, 1593, 1594, 1596, 1597, 1599, 1599, 1600, 1601, 1602, 1603, 1604, 1604, 1605, 1607, 1609, 1610, 1611, 1612, 1614, 1616, 1617, 1618, 1619, 1620, 1620, 1621, 1621, 1622, 1623, 1623, 1624, 1626, 1628, 1630, 1632, 1633, 1634, 1635, 1636, 1637, 1638, 1639, 1639, 1640, 1641, 1642, 1642, 1643, 1644, 1644, 1645, 1649, 1650, 1651, 1652, 1653, 1654, 1655, 1656, 1657, 1660, 1661, 1662, 1663, 1664, 1665, 1665, 1666, 1667, 1668, 1669, 1670, 1671, 1673, 1674, 1675, 1676, 1677, 1678, 1679, 1680, 1681, 1683, 1684, 1684, 1685, 1686, 1687, 1688, 1689, 1689, 1690, 1690, 1693, 1694, 1695, 1696, 1697, 1700, 1701, 1702, 1703, 1704, 1705, 1706, 1707, 1708, 1709, 1710, 1711, 1712, 1714, 1715, 1716, 1718, 1719, 1720, 1721, 1722, 1723, 1724, 1725, 1726, 1727, 1728, 1729, 1730, 1731, 1732, 1733, 1734, 1735, 1737, 1739, 1740, 1741, 1742, 1743, 1745, 1745, 1745, 1746, 1747, 1748, 1749, 1750, 1751, 1752, 1755, 1756, 1757, 1758, 1759, 1760, 1761, 1762, 1764, 1765, 1766, 1767, 1768, 1771, 1772, 1773, 1774, 1775, 1776, 1777, 1777, 1778, 1778, 1779, 1781, 1782, 1784, 1785, 1786, 1787, 1787, 1788, 1789, 1790, 1794, 1794, 1796, 1800, 1801, 1801, 1801, 1802, 1802, 1802, 1806, 1807, 1807, 1808, 1809, 1811, 1812, 1813, 1815, 1816, 1817, 1818, 1818, 1819, 1819, 1820, 1821, 1822, 1824, 1825, 1826, 1827, 1828, 1829, 1830, 1831, 1832, 1833, 1834, 1835, 1837, 1838, 1839, 1840, 1841, 1842, 1844, 1845, 1846, 1847, 1848, 1849, 1850, 1851, 1852, 1853, 1855, 1856, 1857, 1859, 1860, 1861, 1862, 1862, 1863, 1864, 1865, 1866, 1868, 1869, 1870, 1871, 1873, 1875, 1876, 1878, 1878, 1879, 1880, 1881, 1882, 1883, 1883, 1884, 1886, 1887, 1888, 1889, 1890, 1891, 1892, 1892, 1893, 1894, 1895, 1896, 1897, 1898, 1899, 1899, 1900, 1900, 1901, 1902, 1902, 1903, 1904, 1905, 1907, 1909, 1913, 1914, 1915, 1916, 1917, 1918, 1918, 1919, 1921, 1921, 1922, 1923, 1923, 1924, 1928, 1929, 1930, 1931, 1932, 1933, 1934, 1935, 1936, 1937, 1939, 1940, 1942, 1943, 1944, 1944, 1945, 1946, 1947, 1948, 1949, 1950, 1953, 1954, 1955, 1956, 1957, 1958, 1959, 1961, 1962, 1963, 1963, 1964, 1967, 1968, 1968, 1969, 1969, 1970, 1972, 1973, 1974, 1975, 1976, 1979, 1980, 1982, 1983, 1984, 1985, 1986, 1987, 1988, 1989, 1990, 1991, 1992, 1993, 1994, 1995, 1996, 1997, 1998, 1999, 2000, 2001, 2002, 2003, 2004, 2005, 2006, 2008, 2009, 2010, 2011, 2012, 2013, 2015, 2016, 2017, 2018, 2019, 2020, 2021, 2022, 2024, 2024, 2024, 2025, 2026, 2027, 2028, 2031, 2033, 2034, 2035, 2036, 2037, 2038, 2039, 2040, 2041, 2042, 2043, 2044, 2045, 2046, 2047, 2048, 2049, 2050, 2051, 2052, 2053, 2054, 2055, 2056, 2056, 2057, 2057, 2058, 2059, 2060, 2061, 2062, 2062, 2064, 2065, 2066, 2066, 2067, 2068, 2069, 2073, 2073, 2075, 2079, 2085, 2086, 2086, 2087, 2088, 2090, 2091, 2094, 2095, 2096, 2097, 2097, 2098, 2098, 2099, 2100, 2101, 2102, 2103, 2105, 2106, 2107, 2108, 2109, 2110, 2111, 2112, 2114, 2115, 2116, 2117, 2118, 2119, 2120, 2121, 2122, 2123, 2125, 2127, 2128, 2129, 2130, 2131, 2132, 2133, 2134, 2135, 2136, 2138, 2139, 2140, 2141, 2141, 2142, 2143, 2144, 2145, 2146, 2147, 2148, 2149, 2151, 2152, 2153, 2154, 2155, 2157, 2157, 2158, 2159, 2160, 2161, 2162, 2162, 2163, 2165, 2166, 2167, 2168, 2169, 2170, 2171, 2171, 2173, 2174, 2175, 2176, 2177, 2178, 2178, 2179, 2179, 2180, 2181, 2181, 2182, 2183, 2184, 2186, 2190, 2191, 2192, 2193, 2194, 2195, 2196, 2197, 2197, 2199, 2200, 2200, 2201, 2202, 2202, 2203, 2207, 2208, 2209, 2210, 2211, 2212, 2213, 2214, 2216, 2218, 2219, 2220, 2221, 2222, 2223, 2223, 2224, 2225, 2226, 2227, 2228, 2229, 2231, 2232, 2233, 2234, 2235, 2236, 2237, 2238, 2239, 2240, 2241, 2242, 2242, 2243, 2244, 2245, 2246, 2247, 2247, 2248, 2248, 2249, 2252, 2253, 2255, 2258, 2259, 2260, 2261, 2262, 2263, 2264, 2265, 2266, 2267, 2268, 2269, 2270, 2271, 2272, 2273, 2274, 2275, 2276, 2277, 2279, 2280, 2281, 2282, 2283, 2284, 2285, 2286, 2287, 2288, 2290, 2291, 2292, 2293, 2294, 2295, 2296, 2297, 2298, 2299, 2300, 2301, 2303, 2303, 2303, 2304, 2305, 2306, 2307, 2309, 2310, 2312, 2314, 2315, 2316, 2317, 2318, 2320, 2321, 2322, 2323, 2324, 2325, 2326, 2327, 2328, 2330, 2332, 2333, 2334, 2335, 2335, 2336, 2336, 2337, 2338, 2339, 2340, 2341, 2341, 2342, 2343, 2344, 2346, 2347, 2348, 2352, 2352, 2354, 2358, 2359, 2359, 2359, 2360, 2360, 2360, 2364, 2365, 2365, 2366, 2367, 2369, 2370, 2371, 2374, 2375, 2376, 2376, 2377, 2377, 2378, 2379, 2380, 2381, 2382, 2383, 2384, 2385, 2386, 2388, 2389, 2390, 2392, 2393, 2394, 2395, 2396, 2397, 2398, 2399, 2400, 2401, 2402, 2404, 2406, 2407, 2408, 2409, 2410, 2411, 2412, 2414, 2415, 2417, 2418, 2419, 2420, 2420, 2421, 2422, 2423, 2424, 2425, 2426, 2427, 2428, 2429, 2430, 2431, 2432, 2433, 2434, 2436, 2436, 2439, 2440, 2441, 2441, 2442, 2444, 2445, 2446, 2447, 2448, 2449, 2450, 2450, 2451, 2452, 2453, 2454, 2455, 2456, 2457, 2457, 2458, 2458, 2459, 2460, 2460, 2461, 2462, 2463, 2465, 2467, 2469, 2470, 2471, 2472, 2473, 2474, 2475, 2476, 2476, 2477, 2478, 2479, 2479, 2480, 2481, 2481, 2482, 2486, 2487, 2488, 2489, 2490, 2491, 2492, 2493, 2494, 2495, 2497, 2498, 2499, 2500, 2501, 2502, 2502, 2503, 2504, 2505, 2506, 2507, 2508, 2510, 2511, 2512, 2513, 2515, 2516, 2517, 2518, 2519, 2520, 2521, 2521, 2522, 2523, 2524, 2525, 2526, 2526, 2527, 2527, 2528, 2530, 2531, 2532, 2533, 2534, 2537, 2538, 2539, 2540, 2541, 2542, 2543, 2544, 2545, 2546, 2547, 2548, 2549, 2551, 2552, 2553, 2554, 2558, 2559, 2561, 2562, 2563, 2564, 2565, 2566, 2567, 2568, 2569, 2570, 2571, 2572, 2573, 2574, 2575, 2576, 2577, 2578, 2579, 2580, 2582, 2582, 2582, 2583, 2584, 2585, 2586, 2587, 2588, 2589, 2591, 2592, 2593, 2594, 2595, 2596, 2597, 2598, 2599, 2600, 2601, 2602, 2603, 2604, 2605, 2606, 2607, 2608, 2609, 2610, 2611, 2612, 2613, 2614, 2614, 2615, 2615, 2616, 2617, 2619, 2620, 2620, 2621, 2622, 2624, 2624, 2625, 2626, 2627, 2631, 2631, 2633, 2637, 2638, 2638, 2638, 2639, 2639, 2639, 2643, 2644, 2644, 2645, 2646, 2648, 2649, 2650, 2652, 2653, 2654, 2656, 2656, 2657, 2658, 2659, 2662, 2663, 2664, 2665, 2667, 2668, 2669, 2670, 2671, 2672, 2673, 2674, 2675, 2676, 2677, 2678, 2679, 2680, 2681, 2682, 2683, 2684, 2686, 2687, 2688, 2689, 2690, 2691, 2692, 2693, 2694, 2696, 2697, 2698, 2699, 2699, 2700, 2701, 2702, 2703, 2704, 2705, 2706, 2707, 2708, 2709, 2710, 2711, 2712, 2713, 2715, 2715, 2716, 2717, 2718, 2719, 2720, 2720, 2721, 2724, 2727, 2728, 2729, 2729, 2730, 2731, 2732, 2733, 2734, 2735, 2736, 2736, 2737, 2737, 2738, 2739, 2739, 2740, 2741, 2744, 2749, 2750, 2751, 2752, 2753, 2755, 2755, 2756, 2757, 2758, 2758, 2759, 2760, 2760, 2765, 2766, 2767, 2768, 2769, 2770, 2771, 2772, 2773, 2774, 2776, 2777, 2778, 2779, 2780, 2781, 2781, 2782, 2783, 2784, 2785, 2786, 2787, 2789, 2790]
